p tdp 20 61
1 4
1 6
1 7
1 8
1 9
1 12
1 13
1 15
1 17
1 20
2 3
2 12
2 16
2 17
3 5
3 10
3 12
3 15
3 18
3 19
3 20
4 6
4 9
4 10
4 11
4 13
4 15
4 17
4 18
4 19
5 7
5 12
5 19
6 11
6 14
6 17
6 18
6 19
7 13
7 18
7 19
7 20
8 12
8 13
8 17
8 19
8 20
9 14
9 20
10 12
10 14
10 16
10 20
12 13
12 17
13 17
13 20
14 15
14 19
15 19
16 18
